TCS_Benchmarks/redos_fix/regexlib1_output_distinct_3821_3820_100_0.txt
([A-Za-z]{2,4})([VXI]{1,6})
([A-Za-z]{2,4})(\.?\s*([\-'A-Za-z]+\s*){1,2}([A-Za-z]+\.?\s*)?([\-'A-Za-z]+\s*){1,2})([VXI]{1,6})